 # Version information for this restart file 
 # current date 2022-12-23 19:41:58.982
 # current working dir /home/sasakir/apl/cp2kv6/cp2kccd/test_nemd/Argon_cd
 # Program compiled at                              Fri Dec 23 18:36:04 JST 2022
 # Program compiled on                                                   asahi01
 # Program compiled for                                                     i256
 # Source code revision number                                         svn:18464
 &GLOBAL
   PROJECT_NAME argon
   RUN_TYPE  MD
 &END GLOBAL
 &MOTION
   &MD
     ENSEMBLE  NVT
     STEPS  10
     TIMESTEP     9.9999999999999989E-01
     STEP_START_VAL  10
     TIME_START_VAL     9.9999999999999964E+00
     ECONS_START_VAL    -3.4044971318149941E-01
     TEMPERATURE     9.4400000000000006E+01
     &THERMOSTAT
       TYPE  NOSE_XY
       &NOSE
         LENGTH  1
         TIMECON     1.9999999999999996E+01
         &COORD
               1.5239738868603270E-02
         &END COORD
         &VELOCITY
               1.2689904810417042E-05
         &END VELOCITY
         &MASS
               8.7676219920127318E+04
         &END MASS
         &FORCE
              -1.2543808235651031E-07
         &END FORCE
       &END NOSE
     &END THERMOSTAT
     &COLOR
       CDTYPE  CCD
       FZ     2.0000000000000005E-03
       &INDEX_CC
1 -1
2 1
3 -1
4 1
5 -1
6 1
7 -1
8 1
9 -1
10 1
11 -1
12 1
13 -1
14 1
15 -1
16 1
17 -1
18 1
19 -1
20 1
21 -1
22 1
23 -1
24 1
25 -1
26 1
27 -1
28 1
29 -1
30 1
31 -1
32 1
33 -1
34 1
35 -1
36 1
37 -1
38 1
39 -1
40 1
41 -1
42 1
43 -1
44 1
45 -1
46 1
47 -1
48 1
49 -1
50 1
51 -1
52 1
53 -1
54 1
55 -1
56 1
57 -1
58 1
59 -1
60 1
61 -1
62 1
63 -1
64 1
65 -1
66 1
67 -1
68 1
69 -1
70 1
71 -1
72 1
73 -1
74 1
75 -1
76 1
77 -1
78 1
79 -1
80 1
81 -1
82 1
83 -1
84 1
85 -1
86 1
87 -1
88 1
89 -1
90 1
91 -1
92 1
93 -1
94 1
95 -1
96 1
97 -1
98 1
99 -1
100 1
101 -1
102 1
103 -1
104 1
105 -1
106 1
107 -1
108 1
109 -1
110 1
111 -1
112 1
113 -1
114 1
115 -1
116 1
117 -1
118 1
119 -1
120 1
121 -1
122 1
123 -1
124 1
125 -1
126 1
127 -1
128 1
129 -1
130 1
131 -1
132 1
133 -1
134 1
135 -1
136 1
137 -1
138 1
139 -1
140 1
141 -1
142 1
143 -1
144 1
145 -1
146 1
147 -1
148 1
149 -1
150 1
151 -1
152 1
153 -1
154 1
155 -1
156 1
157 -1
158 1
159 -1
160 1
161 -1
162 1
163 -1
164 1
165 -1
166 1
167 -1
168 1
169 -1
170 1
171 -1
172 1
173 -1
174 1
175 -1
176 1
177 -1
178 1
179 -1
180 1
181 -1
182 1
183 -1
184 1
185 -1
186 1
187 -1
188 1
189 -1
190 1
191 -1
192 1
193 -1
194 1
195 -1
196 1
197 -1
198 1
199 -1
200 1
201 -1
202 1
203 -1
204 1
205 -1
206 1
207 -1
208 1
209 -1
210 1
211 -1
212 1
213 -1
214 1
215 -1
216 1
       &END INDEX_CC
     &END COLOR
     &AVERAGES  T
       &RESTART_AVERAGES
         ITIMES_START  1
         AVECPU     9.1319108149036758E-03
         AVEHUGONIOT     0.0000000000000000E+00
         AVETEMP_BARO     0.0000000000000000E+00
         AVEPOT    -4.3705842097109471E-01
         AVEKIN     9.5275347861019849E-02
         AVETEMP     9.3288494339981554E+01
         AVEKIN_QM     0.0000000000000000E+00
         AVETEMP_QM     0.0000000000000000E+00
         AVEVOL     7.0373269059392871E+04
         AVECELL_A     4.1285977854682976E+01
         AVECELL_B     4.1285977854682976E+01
         AVECELL_C     4.1285977854682976E+01
         AVEALPHA     9.0000000000000000E+01
         AVEBETA     9.0000000000000000E+01
         AVEGAMMA     9.0000000000000000E+01
         AVE_ECONS     4.8314833300000483E-03
         AVE_PRESS     0.0000000000000000E+00
         AVE_PXX     0.0000000000000000E+00
       &END RESTART_AVERAGES
     &END AVERAGES
   &END MD
   &PRINT
     &TRAJECTORY  SILENT
       &EACH
         MD  2
       &END EACH
     &END TRAJECTORY
     &VELOCITIES  LOW
       UNIT angstrom*fs^-1
       FORMAT  XMOL
       &EACH
         MD  2
       &END EACH
     &END VELOCITIES
   &END PRINT
 &END MOTION
 &FORCE_EVAL
   METHOD  FIST
   &MM
     &FORCEFIELD
       &NONBONDED
         &LENNARD-JONES
           ATOMS Ar Ar
           EPSILON     1.1999998134521221E+02
           SIGMA     3.3999999999999999E+00
           RCUT     1.0000000000000002E+01
         &END LENNARD-JONES
       &END NONBONDED
       &CHARGE
         ATOM Ar
         CHARGE     0.0000000000000000E+00
       &END CHARGE
     &END FORCEFIELD
     &POISSON
       &EWALD
         EWALD_TYPE  NONE
       &END EWALD
     &END POISSON
   &END MM
   &SUBSYS
     &CELL
       A     2.1847598515049697E+01    0.0000000000000000E+00    0.0000000000000000E+00
       B     0.0000000000000000E+00    2.1847598515049697E+01    0.0000000000000000E+00
       C     0.0000000000000000E+00    0.0000000000000000E+00    2.1847598515049697E+01
       MULTIPLE_UNIT_CELL  1 1 1
     &END CELL
     &COORD
Ar    2.5826648803003791E+00    1.7483154269013885E+00    8.1143599420486900E+00
Ar    4.5205259146384087E+00    1.1608543294213183E+01    8.0508132050641361E+00
Ar    1.4368883068865607E+01    7.4857458963010726E-01   -8.3742153357176257E+00
Ar    7.3365283581387573E+00    2.1771013776321393E+00    1.7242867978463068E+00
Ar    1.7092146767989814E+01   -2.8437469698766482E-02   -5.1834477692075946E+00
Ar    2.5179312906786897E+01    4.6963120500771921E-01   -3.7348408163153297E+00
Ar   -4.9612110565346939E+00   -4.1553583880587963E-01    6.2424162524256328E+00
Ar    3.1513952634100595E+00    1.4471669511313083E+01    2.7022771811758837E+00
Ar    1.6365847266673461E+00   -4.8689839009592193E+00    3.4986092998508478E-01
Ar    1.4355026040210783E+01    1.7610870071946281E+00    4.0018499969719796E+00
Ar    2.4569374532962847E+01    5.5639278322084884E+00    4.2170872604399436E+00
Ar    2.1553419264979837E+01    1.1295872303646217E+01   -1.0132991201368132E+01
Ar    1.2074955482488872E+00    8.3642208600533525E+00    7.0426908006294386E+00
Ar    2.7852011595668698E+00    3.7642423593731884E+00   -3.6027156208702014E+00
Ar    4.0702855947336407E-02   -2.6531442847157190E-02    1.5905618817815650E+00
Ar    1.8139785770831555E+01    6.8365281324201383E+00    4.1469111454703951E+00
Ar    1.8895867059183576E+01   -2.0831346003381754E+00    8.6397684286156782E+00
Ar    1.9196890088077755E+01    2.1264934788982973E+01   -1.9034793990989436E+00
Ar    3.1556469367001290E+00    1.2731612619443441E+01   -1.7061086973494133E-01
Ar    5.3977415763499259E+00    1.6489719821336468E+01    7.9578572287495186E-01
Ar    1.4356977990545746E+01    1.4975958700204183E+01    6.7077094532234733E+00
Ar    6.1529506861833587E+00    5.5243696312774624E+00    2.5154069150609741E+00
Ar    1.4203009894526573E+01    2.0140782650515664E+01    4.0912140187763848E+00
Ar    1.3172822231097074E+01    1.3832854066447185E+01    1.4319036335123183E+00
Ar    4.1728045774708953E+00    1.7714540014597880E+01   -2.5967750108146972E+00
Ar    8.4866222416620314E+00    1.4306983909480916E+01   -7.8545501661397257E+00
Ar    5.2712369930026286E+00    2.1046886735298990E+01    6.6176226413298824E+00
Ar    1.3151530700244898E+01    1.8001660269476545E+01    1.4338388536889526E+00
Ar    3.0805734646837810E+00    1.0625934460768528E+01    3.6997938423942105E+00
Ar    2.0704619678117318E+01    1.7053455420082077E+01    7.1286244827673872E+00
Ar   -9.4961093649708150E+00    1.8599674245942534E+01    6.7483240170666017E+00
Ar    1.0814235509999028E+01    1.7277913924020684E+01   -1.2134569894163847E+00
Ar    5.5438900521549064E+00    1.2695139596566445E+01    4.7275444519300498E+00
Ar    1.8116605160367232E+01    1.1978039631628564E+01   -4.1029713588812093E+00
Ar    2.1157182784045091E+01    1.3903240776223088E+01   -7.3418513875703972E+00
Ar    1.7312901580026779E+01    1.9900193645265215E+01    2.7100095158481805E+00
Ar   -1.0290636243279264E+01    8.5277696462599586E+00    3.6560762875584469E+00
Ar    6.6119348716343778E+00    8.8806541707031583E-01    9.3510433714075241E+00
Ar   -8.0943457595939095E-01   -3.4876122579049436E+00    3.7782810466512293E+00
Ar    9.7716015252308477E+00   -3.4760603390857239E+00    2.2549921822640542E+00
Ar    9.4130414284137416E+00   -3.5517815839533737E+00    1.4043338521558054E+01
Ar    1.8819687801279869E+01   -6.5422845122486635E+00   -1.9033893483893525E+00
Ar   -1.8417870131223135E+00   -1.1542083600121408E-01    4.9726770002254126E+00
Ar   -9.3472833128473098E-01    3.9605244958266614E+00    3.3612344415353150E+00
Ar    4.6239037240718197E+00    3.3077056669299076E+00    1.1785076464746870E+01
Ar    6.5301982893734261E+00    8.0218912732742105E+00   -4.1581932046101082E+00
Ar    1.5030899550069959E+01    5.0900527183584474E+00   -1.5022450906095173E+00
Ar    1.8799438286577871E+01    1.3658941682715433E+00    1.1510301433089263E+00
Ar   -2.0235400667611776E+00    8.6876393712929900E+00    1.0672032911615514E+00
Ar   -5.6173411559843007E+00    1.1698997386783054E+01    7.2444764019996875E+00
Ar    8.2290612851539500E+00    1.0194275045232579E+00    5.8909765167061687E+00
Ar    1.3053375662107074E+01    3.3579864165575390E+00   -6.2376141481984373E+00
Ar    1.5333193879614393E+01    8.1875923874963217E+00    5.8260882054755543E+00
Ar    1.3273646405598138E+01    8.7758766565076574E+00   -2.3341035003451056E+00
Ar   -1.9571745883735689E+00    4.5201773572736546E+00    1.8787522446541599E-01
Ar    4.8506249955692367E+00    2.4798199037762467E+00   -1.1014698860422534E+00
Ar    9.6314728868050388E+00    8.5949646294440729E+00   -2.3627293335050159E+00
Ar    1.2304055045982341E+01    1.4311630714781993E+01   -6.5202664827809782E+00
Ar    2.5863553448654407E+01    6.3460563677972051E+00   -1.3386252985456721E+00
Ar    1.2481440827493577E+01    1.1345716257885723E+01    7.6168259015551785E+00
Ar    7.8870234868125371E+00    1.3905031631982862E+01    1.5129097942982428E+00
Ar    9.2768340094548680E+00    1.6995358328257552E+01   -4.4878117212369775E+00
Ar    1.4559090428848863E+01    1.5813490409977131E+01   -8.6366441333236477E-01
Ar    6.4911947232378449E+00    2.0992406302462893E+01    3.4335719376890599E+00
Ar    5.5914178968115689E+00    1.5915718686053403E+01    7.7596925522092191E+00
Ar    7.6808253925502390E+00    5.2124211987706772E+00    1.2733077118526518E+01
Ar    7.9541988646864059E-01    2.0364156251039486E+01   -1.6927240968651887E+00
Ar    9.3706342991077851E-01    1.9981718833795394E+01    6.9214887016063615E+00
Ar    2.6532073121326518E+00    1.7090458049202855E+01    9.1490108993202668E+00
Ar    5.8619210314939076E+00    1.8869580733974654E+01    1.3006476913272431E+01
Ar    1.7546611413471432E+01    1.7923963132729750E+01    5.9384891767755645E+00
Ar    1.5295335702657006E+01    2.2728754700973290E+01    2.5138210807246714E-01
Ar   -5.3181373023314515E+00    4.1102800742234722E+00    1.6485172331692795E+00
Ar    1.8254562572692790E+00    5.0082053301283258E+00    9.1697039723012586E-01
Ar   -1.7022390307953970E+00    1.3811240178398012E+00    8.0487967089093626E+00
Ar    9.4339963069441897E+00   -5.6761178792021993E-01    1.1226737381132960E+01
Ar    7.2854624090258211E+00    5.2857546275652219E+00    7.5809289960801420E+00
Ar    1.6842704251110597E+01   -4.3907216743335900E+00    1.0799493658859156E+01
Ar   -1.6248696922110091E+00    1.2684811552530144E+01    8.5458306575354612E+00
Ar    3.3886450908122465E+00    5.5454511520048495E+00    7.7832194847985123E+00
Ar    1.8145136175216086E+00    1.1782447904172679E+00    4.4120148691382619E+00
Ar    1.2729721693549827E+01    5.7613974292258572E+00    1.3693560620644711E+00
Ar    1.8852912141686520E+01    3.8614226984774866E+00    1.0047663790392232E+01
Ar    8.2572794848864604E+00   -6.9124312036850464E+00    5.4592930528817867E+00
Ar    7.0936887183947228E-01    1.2751045492372914E+01   -3.0802111552672153E+00
Ar   -3.6280892845923729E+00    6.1455098646886039E+00    7.4698415628144605E+00
Ar    1.0760568009158236E+01    3.0233037704471246E+00    2.9098933632684187E+00
Ar    5.3213608232805232E+00    2.9581746943483522E+00    4.9187200304819418E+00
Ar    9.4803640667999112E+00    6.4248316296890229E+00    1.1619517716125241E+00
Ar    2.0448405264094610E+01    1.1825358184646962E+01   -3.6622988748471536E-01
Ar    4.7025994739113941E-01    1.2311519716886627E+01    2.3877802044590304E+00
Ar    1.7763468978629540E-01    1.1432817978036264E+01    5.6582247198649513E+00
Ar    1.2227457827260420E+01    5.9489608191905354E+00    1.1070341009682743E+01
Ar    5.4226006131560549E+00    7.8050307221133961E+00    5.5090007973944379E+00
Ar    1.6002958103287355E+01    1.8863807944729963E+01    1.7873599450055789E+01
Ar    7.1284666245234494E+00    1.1738350268318163E+01   -5.7034502335467430E+00
Ar   -4.8650603315757106E+00    2.2751992450313910E+01    1.0612189617177405E+01
Ar   -2.6418870093812541E+00    9.5241921275256765E+00    7.3685779941768779E+00
Ar   -7.4931619711683550E-01    1.5756081428517213E+01    1.1541391414700147E+01
Ar    2.0283093101742999E+01    1.5396260870333547E+01    1.5955912519738729E+00
Ar    1.0790475379543729E+01    2.2151225935303131E+01    1.4866430106986909E+01
Ar    2.1646779828201904E+01    7.6277121832020294E+00    3.7204732618112031E+00
Ar   -6.0191846533349795E-02    1.9118784271907025E+01    1.0599380335943394E+01
Ar   -1.8395692730572569E-01    2.6417711998261087E+01    6.9971990628023741E+00
Ar    1.1639445759371640E+01    1.5768035289443468E+01    3.9942511046042180E+00
Ar    7.2660096691304474E+00    2.0607563990771535E+01    1.6386166746063019E+01
Ar    9.6807408890750928E+00    1.7003166348688186E+01    1.0603345126722628E+01
Ar    1.9331347851347839E+01    1.4310871296847543E+01    5.1814349975782195E+00
Ar    1.2754232245850524E+01    1.6564237146786833E+00    1.0452868577718847E+01
Ar    3.0875137500993186E+00   -1.4807039804593094E+00    1.1120100028915866E+01
Ar    1.2421114386873457E+01   -2.3174517794812726E+00    1.2400633728051794E+01
Ar    9.3136145818150560E+00   -3.1854299439738692E-01    2.2221718172965939E+01
Ar    1.4434539215381411E+01    1.5212897947083261E+00    1.8451676948647638E+01
Ar    5.4863519337017079E+00   -4.8246869729322945E+00    4.1267859504054734E+00
Ar   -4.0673541434466429E+00    3.0816588585145959E+00    4.9437727880628826E+00
Ar    6.7724159811380744E+00    6.0389160943381370E-01    1.3068893796455340E+01
Ar    1.0291010882840292E+00    4.8593807177316437E+00    1.0796699280618746E+01
Ar    9.4394740404658251E+00    3.3926449147620037E+00    9.5133244850635474E+00
Ar    1.7287281386200625E+01   -1.9895811878876326E+00    1.3423211761148703E+01
Ar    1.1932570466760952E+01    6.9585558916442602E-01    7.0375934278106973E+00
Ar   -3.1562858550113631E+00    5.4058257836404398E+00    1.3326023556527288E+01
Ar    1.6618978134997683E+01    3.5804739372770720E+00    1.6004793060447721E+01
Ar    8.8394841544464846E+00   -3.2995660828131448E+00    5.9118441201883778E+00
Ar    8.9885436989607950E+00    5.8423789456601911E+00    4.5497721271039300E+00
Ar    2.0582688594664162E+01    4.9742648486410097E+00    1.6619044441765809E+01
Ar    1.1834451746028320E+01    4.3481792616349129E+00    6.8215056822507147E+00
Ar   -4.2696207390690422E+00    1.0277578858387654E+01    1.1023833399281713E+01
Ar    9.4471977125799373E+00    1.3350670614888758E+01    1.8647132423666591E+01
Ar    6.0060261431509998E+00    1.5676820763157760E+01    1.1604911701352735E+01
Ar    1.6672067545382205E+01    1.5868711794306055E+01    2.6278113875224287E+00
Ar    1.1418075843537643E+01    7.9852267661939855E+00    8.3214804576476329E+00
Ar    1.4549710924359026E+01    1.3178267441107582E+01    1.1238782047455290E+01
Ar   -4.2711751626136172E+00    1.5122132488451326E+01    7.9186604531859430E+00
Ar    2.5016673738546169E+00    1.3432465775862202E+01    1.0620917549074710E+01
Ar    2.4593071772398680E+00    1.4267495641566949E+01    6.5825729838864735E+00
Ar    9.4621911899152789E+00    1.1400040763079939E+01    9.9152906830889158E+00
Ar    1.3311604169407282E+01    1.7106775745240100E+01    1.0198320226610699E+01
Ar    1.8205727063960172E+01    1.6279599049923974E+01    1.4562480699735321E+01
Ar    2.7971460671136525E+00    1.6594950076413078E+01    1.3178265989690665E+01
Ar    6.1849905216258989E+00    1.5484698584733307E+01    1.6505690967576477E+01
Ar   -1.6545316030534658E+00    2.9475110490578494E+01    1.1022970937970786E+01
Ar    8.7037015071142267E+00    1.0199621868175713E+01    6.4804697264297770E+00
Ar    2.2309802560620884E+01    2.3216586496755035E+01    1.1246127451671510E+01
Ar    1.4848962905025356E+01    1.9993853556670757E+01    9.1943171859612836E+00
Ar    2.2132994373007140E+00    7.4160988352833002E+00    1.6747763280253750E+01
Ar    4.0137413246236262E+00    6.6620016091775947E+00    1.1878317629104588E+01
Ar    5.1854415938837062E-01    5.7506403264783890E+00    1.9753033873911402E+01
Ar    1.2320892043755629E+01    2.4990802524641524E+00    2.1666840853682629E+01
Ar    2.1665417842754451E+01    1.8716356362376427E+00    1.9202360484286444E+01
Ar    1.4950805716893955E+01    3.8651271203296269E+00    1.2110726776581423E+01
Ar    1.7682824381090807E+00    4.4683126147220928E+00    1.4276940981776233E+01
Ar    7.9947960077922522E+00    4.8324193501202881E+00    1.9516269717098492E+01
Ar    1.0739447832762067E+01    3.3261280136792468E+00    1.2731287402864563E+01
Ar    1.1666547881432553E+01    5.6048960604257445E+00    1.9520047329925298E+01
Ar    2.0103607445450375E+01   -3.3729212416720995E+00    1.8244857768303625E+01
Ar    1.6391159058106204E+01    6.7405951782167577E+00    1.0293608693249180E+01
Ar   -7.5164559268972111E+00    1.0479269769514151E+01    2.2771436442762504E+01
Ar    4.9686391640445970E+00    9.2924366319378766E+00    2.2142752012978409E+01
Ar    1.0628511076214895E+01    1.4260294351272638E+01    7.9029514421610783E+00
Ar    1.1796564997928044E+01    7.5001163358736953E+00    1.6020010731378342E+01
Ar    1.5158826635186440E+01    3.8224558817043923E+00    8.1315791935656367E+00
Ar    2.6542027474243366E+01    9.4291651416980926E+00    1.4251452339305025E+01
Ar    1.4130787776914248E+01    9.2224661499126732E+00    1.0230470456662248E+01
Ar   -2.1320259620693846E-01    7.4475254133185160E+00    1.4021514265795577E+01
Ar    9.2014234365793932E+00    4.2973476268140374E+00    1.6039220786182256E+01
Ar    1.4300292264962538E+01    1.1530783030172838E+01    2.6301776684404579E+01
Ar    1.4655202601332602E+01    7.9516226208805376E+00    1.3499989680284873E+01
Ar    1.5538386332641315E+01    9.3990218241848886E+00    1.6563842426168112E+01
Ar    6.6926751290565569E+00    1.1190819512040701E+01    1.9734079958715650E+01
Ar    3.2367295499095396E+00    1.0145065227526871E+01    1.1054111163922045E+01
Ar    5.1253069383039858E+00    5.0393397651549439E+00    1.5221595202524320E+01
Ar    1.0267273516185188E+01    1.1919985953174654E+01    3.6180140773120928E+00
Ar    1.6525882305656673E+01    1.3046310367647290E+01    1.4627888852977248E+01
Ar    2.1396922529923636E+01    1.7982321980120556E+01    1.4290395562766928E+01
Ar    6.6951578525373421E+00    1.4911676771298525E+01    1.9883481051990106E+01
Ar    6.3469149951736794E+00    1.2270757689114561E+01    1.2070187896210070E+01
Ar    6.7620730566559519E+00    1.9057790811764288E+01    9.2078941195941155E+00
Ar    1.6750711678780405E+01    1.8582611796311983E+01    2.1364698516809671E+01
Ar    2.5083857942578142E+01    2.2795098579083962E+01    1.4481794722567079E+01
Ar    1.8944004574487618E+01    2.3492672912952731E+01    1.3301204937038278E+01
Ar    1.4437146172552003E+01   -5.1503666465441640E+00    1.3860361582984797E+01
Ar   -3.5200851479548159E+00   -1.0494527097009003E+01    2.4871466569868314E+01
Ar    6.5265811777128580E+00    9.0951323288202968E+00    1.0217788492819400E+01
Ar    1.3719392660789683E+01   -1.6636119822408864E+00    1.5778365028874509E+01
Ar    2.0824664412295427E+01   -5.7513732924209038E-01    1.5230099912504864E+01
Ar    1.8983619222620174E+01    9.8296029137170127E+00    1.4661573248665713E+01
Ar   -7.2605304673638162E+00    4.9344918514505558E+00    2.6572312890101799E+01
Ar    3.9556808650444668E+00   -1.1389132163141711E+00    2.1865683256451831E+01
Ar    6.3749491012671484E+00    2.2201598457930065E+00    1.7288523309417982E+01
Ar    1.0697716103455184E+01    1.0617111059437079E+01    1.6648801883025659E+01
Ar    2.4043106951473884E+01   -6.2433523736285519E+00    1.6881406580687681E+01
Ar    2.4771072108146747E+01   -2.2623932794946064E+00    2.4985803187429397E+01
Ar   -7.0588075894817570E-01    9.3284436024952644E+00    1.8156344926421500E+01
Ar    1.7236738783286834E+00    8.8412364887228136E+00    2.2723577719067812E+01
Ar    1.3003315147265770E+01    1.0846847659917367E+01    1.4069049711866043E+01
Ar    1.2888850383551945E+01   -1.5714069152116379E+00    2.0608006468262950E+01
Ar    1.3179193152541627E+01    1.2192534490055316E+01    1.8671870938472910E+01
Ar    1.7053025502406452E+01    9.7291885921499404E+00    2.0721232429638629E+01
Ar    3.3005708321957337E+00    1.3356516423775041E+01    1.3997972031110599E+01
Ar    3.2741363550668092E+00   -2.5698248753160966E+00    1.5660864520594762E+01
Ar    6.3241436815834906E-01    1.0563631336422409E+01    1.4967865667002936E+01
Ar    8.2613751280472627E+00    8.4923210934789903E+00    1.4800460905912921E+01
Ar    7.7408796307377994E+00    9.5911509281403049E+00    2.4471498314959188E+01
Ar    1.8172865938766044E+01    1.3644165390073256E+01    1.1573633142109827E+01
Ar   -4.2727144344678214E+00    6.9760765727280987E+00    1.8360021542090148E+01
Ar    3.8118486408976056E+00    1.1715965200468654E+01    1.7716644151095018E+01
Ar    1.2901981823461531E+01    1.7115669947306070E+01    1.7697525890261272E+01
Ar    1.1313244295551099E+01    1.4177933417371914E+01    1.1872989213081496E+01
Ar    1.7055201036464602E+01    1.2987656023560884E+01    2.1804931718422903E+01
Ar    2.0094022929647291E+01    1.8747428397306020E+01    2.2157727761838721E+01
Ar    1.0095080546487564E+01    2.3879566263681081E+01    1.8653461206042934E+01
Ar   -3.8194522772412731E+00    2.5186202909829223E+01    1.9093862701497592E+01
Ar    1.6253941219015644E+01    1.5179878968688593E+01    1.7577625667042799E+01
Ar    7.3527401808820372E+00    1.9047153507867279E+01    2.0634794188782788E+01
Ar    1.0711508812704288E+01    1.1065721108400403E+01    2.9871910462717521E-01
Ar    3.2489560315668847E+01    2.0051393187441651E+01    1.8052376900303987E+01
     &END COORD
     &VELOCITY
          -5.8234853013912521E-05   -1.5680749171397813E-05    3.8133877557559087E-05
          -2.2165103683436628E-05   -2.9616477575493961E-05   -2.3862386868093085E-05
          -3.6789623921959720E-05   -6.3662795267430524E-05    1.3137590989881730E-04
          -9.3591578871255176E-05    5.3171422609588840E-05    1.2434595135919256E-04
          -3.9468636096610994E-05    2.5582109399987204E-05    3.8531298426602522E-05
          -4.3569144391490215E-05    7.5324661112305443E-05    3.9280477325561723E-06
          -5.1799716034125502E-05    6.1159235020097108E-05   -9.2088210074862769E-05
          -7.1391946144475912E-05   -3.9228395087188007E-05   -6.1240842552952188E-05
           6.3040010339827715E-05   -5.6104493934106103E-05   -1.0925375387421939E-05
           1.2932115304170735E-04   -5.0788513755516789E-05   -2.8649483544451319E-05
           1.0809835224426484E-04   -4.1373767523751998E-05    5.4258883706258379E-05
          -2.3023948793343899E-05    8.1268188937649700E-05   -1.7662840182057991E-07
           2.6374333415909914E-05   -7.6714082580730067E-05   -4.1142281041724052E-05
          -1.0732512908211729E-05    6.7454893247889170E-05   -1.6087946624447435E-05
           1.2108258624684918E-04    1.0896970359592259E-06    1.2827965314377710E-04
           4.1244708928413247E-05    2.0581718268446322E-05   -1.2660862208170387E-05
          -9.2050826414169073E-05    7.5873396477119334E-05   -1.4789008819012022E-05
           1.8463866843492222E-05    3.4884091540681888E-05    3.9955280991903180E-05
           4.9361006705973134E-06   -1.6707281920545293E-05   -4.9532602673735020E-05
           5.6714425749190676E-05    3.7852146957407672E-05    3.7048222635504902E-05
          -1.2566910013023876E-05    1.3390336281163655E-04   -7.3203099880116612E-05
          -2.1223009893417012E-06   -2.2300556398259246E-05    9.3423902093999275E-05
          -1.8735424519574887E-06   -3.7283504938291925E-05   -1.7510219893113727E-04
          -1.8243686955927389E-05    6.4975624232371701E-06   -6.0154584450015552E-05
           5.2093850701559954E-05   -3.7769393504326146E-05    9.7877682604028773E-05
           6.9169129785440873E-05    8.8694208041791573E-05    3.9700206404648597E-05
          -1.0538486014504821E-04    2.9122333040985618E-05    2.6408552042788020E-05
           1.0723339181454069E-05    2.5761486542427714E-06   -1.0194312303767390E-04
          -9.8652893115462923E-06    2.9770028023583526E-05   -7.9238761525813521E-05
           1.0345424045191610E-05   -2.8286433602321630E-05    1.8047805374060692E-06
           8.4092106282606245E-05    5.8134678832178162E-05   -3.9965926402207348E-05
           3.7120784293119643E-05    6.3284834702402560E-05    1.3789892143304617E-04
           8.2242070404002550E-05    8.2121095492581516E-05    2.6171227974002347E-05
          -5.5913763115705146E-05   -4.6388074232198591E-05    1.2756468489723242E-04
           4.6750025908520756E-05   -4.2199675418645282E-05   -7.4698042822737634E-05
          -6.0402770909585472E-05    1.3192504443148009E-05   -1.0845390020167475E-04
           5.5468161218344770E-05   -2.8762306216688430E-05   -2.7535360142439128E-05
           1.1504281731066610E-04    3.9376194209863466E-05    7.1261486742076412E-06
          -1.7222713958316491E-05   -1.0829824928841625E-06   -9.4614470588727802E-05
          -8.5078585373106122E-06    1.0325587385490445E-05    1.4960138458059360E-05
           9.3253889650873810E-06   -9.9976892608609198E-05   -3.1645292067309661E-05
          -6.0991453375516484E-05   -3.0327234833487816E-05   -3.3122770478282756E-05
          -2.1612739331656283E-05   -2.6453305753316219E-05    9.4481648260134692E-06
          -3.5108327878545986E-05   -7.7644670123496672E-06   -9.7960844253428239E-05
          -1.0558128022135092E-04   -1.1316733334544800E-05   -1.7281781768175958E-05
          -3.9135195985543241E-05   -6.3711550631682178E-05    4.7627424957933395E-05
           2.0225969208441721E-05   -1.3097317354712965E-04    3.2400967066971216E-05
           8.9820660573696468E-05   -2.5471855143868490E-06   -9.4665472779754300E-05
          -1.8992752813075096E-05   -2.7612263613435689E-05    3.8357820408480685E-05
          -2.5628367580149118E-05    2.1366578266820599E-05    4.7443960041464572E-05
           4.6458802249079305E-06    9.1480868108638026E-07    7.7798772884816710E-05
          -6.7694978672795466E-05    7.6340176841051491E-05    3.7745986559358328E-05
           1.3258166210443543E-04    6.9990472714612909E-05    1.0909933048999151E-05
           1.1369928753196150E-05    1.3712352801202940E-05   -9.7197675480263396E-05
          -1.8295818758362382E-05   -1.0212568391589693E-04   -5.9216021751375830E-05
          -5.6083644169926918E-05   -1.3050451250416359E-05    8.7901934287118181E-05
          -1.4437288566350298E-05   -3.3849556889991526E-05    1.2021979776855847E-04
          -3.1066224020790827E-05    8.2804163339900310E-05    2.1409761961905814E-05
          -2.0412438781378231E-07    8.9538319544186056E-05    1.6625437179536144E-05
          -2.5408312037664714E-05   -2.5636685567480006E-05   -3.0632264111208829E-05
           4.5700881859749801E-05    6.8036097440845862E-05    3.4449358700285059E-05
          -7.2551532675109185E-05    1.7877892758164216E-06   -1.0057840759123985E-05
           1.6892668207052068E-05   -2.2763510594609076E-05    5.5087550101568731E-05
          -4.9991899595338017E-05    4.5527587163973610E-05   -6.8296635375365315E-05
           6.4228609110009307E-05   -9.1005038663748229E-05    7.5235182544220939E-06
          -5.2864994809353642E-05    8.6802919861507169E-05   -4.8821303493873471E-05
           5.3775639216225577E-05    7.7324177067127298E-05    8.0056271429685593E-05
           4.8515881177302789E-05    1.0575550054195761E-04    3.5660633778934675E-05
           1.1211139658761266E-05    1.3039519531085724E-05    6.9491800390995156E-05
           2.1043580584045885E-05   -1.4611657555037942E-04    5.1265624183938088E-05
           5.5159545925644519E-05    1.4561053116027609E-04   -1.2982021939202745E-05
          -5.2674015604085160E-05   -3.7805195127391046E-05    4.3005730844916547E-05
          -1.1423094101768093E-04    4.4595815416956398E-05   -3.9963739488824528E-05
           8.9292949115984968E-05   -5.7483968746657049E-05   -4.5065237920335908E-05
          -3.5755046122040248E-05   -3.2541079579045772E-05   -4.7751034029213994E-05
          -1.1213103816704491E-04   -2.5590584883153598E-05   -6.4220965638240476E-05
          -9.9840029647731921E-05    1.1906598124826318E-04   -3.7404317269271771E-05
           9.4445668123166782E-06   -9.7730404821811219E-05    2.6895940470902408E-05
          -1.8015799359924183E-05   -7.1380737366360093E-05    1.5951199601747803E-05
           1.3341820714761027E-04   -3.7338672417878980E-05   -2.8105091455219865E-05
           5.6528622193012469E-05    1.2515785717335463E-04   -1.2123444481975369E-04
           3.9488566066454343E-05   -6.3982611545367987E-05   -6.2012517777698472E-06
          -1.1011087085659749E-04    1.2371322026552430E-06   -3.3743577232902629E-05
           7.4947837110558876E-05    5.3645916730898609E-05   -6.9401807699673917E-05
          -3.0065655343678881E-05   -3.1530216186697299E-05   -2.5182523269817152E-05
           3.3845164297994736E-05    5.7331519082432098E-05   -7.9248140828645343E-06
           1.0014837306599730E-04   -1.0805313662085670E-05    6.0745915091192589E-05
          -5.1955970975873265E-05    3.7153799329340241E-05    1.1300490765333340E-04
           6.1807121378784600E-05   -6.4035698301427037E-05   -2.3785088551699688E-05